! Same line with 3x through-path gain bolted on.
! Not passive: sigma_max > 1. This is what a bad vendor
! model or a mis-de-embedded measurement looks like.
# HZ S RI R 50
1000000000 0.05 0 2.8098500229 -0.354966606919 2.8098500229 -0.354966606919 0.05 0
1619047619.05 0.05 0 2.77376665647 -0.572256042937 2.77376665647 -0.572256042937 0.05 0
2238095238.1 0.05 0 2.72090611862 -0.786084179244 2.72090611862 -0.786084179244 0.05 0
2857142857.14 0.05 0 2.65158813716 -0.995157672981 2.65158813716 -0.995157672981 0.05 0
3476190476.19 0.05 0 2.56623198298 -1.19821193982 2.56623198298 -1.19821193982 0.05 0
4095238095.24 0.05 0 2.46535393414 -1.39401880283 2.46535393414 -1.39401880283 0.05 0
4714285714.29 0.05 0 2.3495641531 -1.58139392109 2.3495641531 -1.58139392109 0.05 0
5333333333.33 0.05 0 2.21956299619 -1.75920395326 2.21956299619 -1.75920395326 0.05 0
5952380952.38 0.05 0 2.07613677745 -1.92637341254 2.07613677745 -1.92637341254 0.05 0
6571428571.43 0.05 0 1.92015301263 -2.08189117182 1.92015301263 -2.08189117182 0.05 0
7190476190.48 0.05 0 1.752555172 -2.22481657947 1.752555172 -2.22481657947 0.05 0
7809523809.52 0.05 0 1.57435697374 -2.35428514892 1.57435697374 -2.35428514892 0.05 0
8428571428.57 0.05 0 1.38663625247 -2.46951378748 1.38663625247 -2.46951378748 0.05 0
9047619047.62 0.05 0 1.19052843993 -2.5698055329 1.19052843993 -2.5698055329 0.05 0
9666666666.67 0.05 0 0.98721969733 -2.65455376898 0.98721969733 -2.65455376898 0.05 0
10285714285.7 0.05 0 0.777939740801 -2.72324589468 0.777939740801 -2.72324589468 0.05 0
10904761904.8 0.05 0 0.563954403467 -2.77546642459 0.563954403467 -2.77546642459 0.05 0
11523809523.8 0.05 0 0.34655797902 -2.81089950201 0.34655797902 -2.81089950201 0.05 0
12142857142.9 0.05 0 0.127065393165 -2.82933080941 0.127065393165 -2.82933080941 0.05 0
12761904761.9 0.05 0 -0.0931957497263 -2.83064886474 -0.0931957497263 -2.83064886474 0.05 0
13380952381 0.05 0 -0.312893196654 -2.81484569572 -0.312893196654 -2.81484569572 0.05 0
14000000000 0.05 0 -0.530698104142 -2.78201688806 -0.530698104142 -2.78201688806 0.05 0
14619047619 0.05 0 -0.745293075768 -2.73236100734 -0.745293075768 -2.73236100734 0.05 0
15238095238.1 0.05 0 -0.955380130458 -2.66617839792 -0.955380130458 -2.66617839792 0.05 0
15857142857.1 0.05 0 -1.15968855335 -2.58386936637 -1.15968855335 -2.58386936637 0.05 0
16476190476.2 0.05 0 -1.35698258171 -2.48593176015 -1.35698258171 -2.48593176015 0.05 0
17095238095.2 0.05 0 -1.5460688795 -2.37295795644 -1.5460688795 -2.37295795644 0.05 0
17714285714.3 0.05 0 -1.72580375526 -2.24563127907 -1.72580375526 -2.24563127907 0.05 0
18333333333.3 0.05 0 -1.89510007977 -2.10472186544 -1.89510007977 -2.10472186544 0.05 0
18952380952.4 0.05 0 -2.05293386152 -1.95108200839 -2.05293386152 -1.95108200839 0.05 0
19571428571.4 0.05 0 -2.19835044039 -1.785641001 -2.19835044039 -1.785641001 0.05 0
20190476190.5 0.05 0 -2.33047026192 -1.60939951582 -2.33047026192 -1.60939951582 0.05 0
20809523809.5 0.05 0 -2.44849419727 -1.42342355226 -2.44849419727 -1.42342355226 0.05 0
21428571428.6 0.05 0 -2.55170837681 -1.22883798887 -2.55170837681 -1.22883798887 0.05 0
22047619047.6 0.05 0 -2.63948850795 -1.02681977951 -2.63948850795 -1.02681977951 0.05 0
22666666666.7 0.05 0 -2.71130365118 -0.818590834494 -2.71130365118 -0.818590834494 0.05 0
23285714285.7 0.05 0 -2.76671943146 -0.605410629893 -2.76671943146 -0.605410629893 0.05 0
23904761904.8 0.05 0 -2.80540066558 -0.388568589539 -2.80540066558 -0.388568589539 0.05 0
24523809523.8 0.05 0 -2.82711338948 -0.169376285937 -2.82711338948 -0.169376285937 0.05 0
25142857142.9 0.05 0 -2.83172627341 0.0508404928057 -2.83172627341 0.0508404928057 0.05 0
25761904761.9 0.05 0 -2.81921141626 0.270749762025 -2.81921141626 0.270749762025 0.05 0
26380952381 0.05 0 -2.78964451435 0.489021397033 -2.78964451435 0.489021397033 0.05 0
27000000000 0.05 0 -2.74320440355 0.704335178401 -2.74320440355 0.704335178401 0.05 0
27619047619 0.05 0 -2.68017197761 0.915388777322 -2.68017197761 0.915388777322 0.05 0
28238095238.1 0.05 0 -2.60092848914 1.12090563277 -2.60092848914 1.12090563277 0.05 0
28857142857.1 0.05 0 -2.50595324364 1.3196426728 -2.50595324364 1.3196426728 0.05 0
29476190476.2 0.05 0 -2.39582070039 1.51039783329 -2.39582070039 1.51039783329 0.05 0
30095238095.2 0.05 0 -2.27119699779 1.69201732864 -2.27119699779 1.69201732864 0.05 0
30714285714.3 0.05 0 -2.1328359243 1.86340263046 -2.1328359243 1.86340263046 0.05 0
31333333333.3 0.05 0 -1.98157435905 2.02351711205 -1.98157435905 2.02351711205 0.05 0
31952380952.4 0.05 0 -1.81832721 2.17139231844 -1.81832721 2.17139231844 0.05 0
32571428571.4 0.05 0 -1.64408188011 2.30613382411 -1.64408188011 2.30613382411 0.05 0
33190476190.5 0.05 0 -1.45989229501 2.42692664293 -1.45989229501 2.42692664293 0.05 0
33809523809.5 0.05 0 -1.26687252832 2.53304015764 -1.26687252832 2.53304015764 0.05 0
34428571428.6 0.05 0 -1.06619006314 2.62383253895 -1.06619006314 2.62383253895 0.05 0
35047619047.6 0.05 0 -0.859058730521 2.69875462773 -0.859058730521 2.69875462773 0.05 0
35666666666.7 0.05 0 -0.646731367612 2.75735325654 -0.646731367612 2.75735325654 0.05 0
36285714285.7 0.05 0 -0.430492239815 2.79927399064 -0.430492239815 2.79927399064 0.05 0
36904761904.8 0.05 0 -0.211649272908 2.82426327181 -0.211649272908 2.82426327181 0.05 0
37523809523.8 0.05 0 0.00847385796691 2.83216995199 0.00847385796691 2.83216995199 0.05 0
38142857142.9 0.05 0 0.228545734578 2.82294620749 0.228545734578 2.82294620749 0.05 0
38761904761.9 0.05 0 0.447235248706 2.7966478283 0.447235248706 2.7966478283 0.05 0
39380952381 0.05 0 0.663219653371 2.75343388055 0.663219653371 2.75343388055 0.05 0
40000000000 0.05 0 0.875192563491 2.69356574451 0.875192563491 2.69356574451 0.05 0
